p cnf 210 320
5 17 37 51 52 0
5 17 37 51 -52 0
5 17 37 -51 52 0
5 17 37 -51 -52 0
24 28 37 53 54 0
24 28 37 53 -54 0
24 28 37 -53 54 0
24 28 37 -53 -54 0
24 -28 40 55 56 0
24 -28 40 55 -56 0
24 -28 40 -55 56 0
24 -28 40 -55 -56 0
4 -28 -40 57 58 0
4 -28 -40 57 -58 0
4 -28 -40 -57 58 0
4 -28 -40 -57 -58 0
4 -24 29 59 60 0
4 -24 29 59 -60 0
4 -24 29 -59 60 0
4 -24 29 -59 -60 0
13 -24 -29 61 62 0
13 -24 -29 61 -62 0
13 -24 -29 -61 62 0
13 -24 -29 -61 -62 0
-13 -24 -29 63 64 0
-13 -24 -29 63 -64 0
-13 -24 -29 -63 64 0
-13 -24 -29 -63 -64 0
-4 10 -17 65 66 0
-4 10 -17 65 -66 0
-4 10 -17 -65 66 0
-4 10 -17 -65 -66 0
-4 -10 -17 67 68 0
-4 -10 -17 67 -68 0
-4 -10 -17 -67 68 0
-4 -10 -17 -67 -68 0
26 33 -37 69 70 0
26 33 -37 69 -70 0
26 33 -37 -69 70 0
26 33 -37 -69 -70 0
5 -26 34 71 72 0
5 -26 34 71 -72 0
5 -26 34 -71 72 0
5 -26 34 -71 -72 0
33 -34 48 73 74 0
33 -34 48 73 -74 0
33 -34 48 -73 74 0
33 -34 48 -73 -74 0
33 -37 -48 75 76 0
33 -37 -48 75 -76 0
33 -37 -48 -75 76 0
33 -37 -48 -75 -76 0
5 -33 -37 77 78 0
5 -33 -37 77 -78 0
5 -33 -37 -77 78 0
5 -33 -37 -77 -78 0
2 -5 10 79 80 0
2 -5 10 79 -80 0
2 -5 10 -79 80 0
2 -5 10 -79 -80 0
2 -5 -10 81 82 0
2 -5 -10 81 -82 0
2 -5 -10 -81 82 0
2 -5 -10 -81 -82 0
-2 15 47 83 84 0
-2 15 47 83 -84 0
-2 15 47 -83 84 0
-2 15 47 -83 -84 0
15 30 -47 85 86 0
15 30 -47 85 -86 0
15 30 -47 -85 86 0
15 30 -47 -85 -86 0
-2 -15 30 87 88 0
-2 -15 30 87 -88 0
-2 -15 30 -87 88 0
-2 -15 30 -87 -88 0
20 -30 42 89 90 0
20 -30 42 89 -90 0
20 -30 42 -89 90 0
20 -30 42 -89 -90 0
-2 20 -30 91 92 0
-2 20 -30 91 -92 0
-2 20 -30 -91 92 0
-2 20 -30 -91 -92 0
13 -20 29 93 94 0
13 -20 29 93 -94 0
13 -20 29 -93 94 0
13 -20 29 -93 -94 0
13 16 -20 95 96 0
13 16 -20 95 -96 0
13 16 -20 -95 96 0
13 16 -20 -95 -96 0
-13 -20 31 97 98 0
-13 -20 31 97 -98 0
-13 -20 31 -97 98 0
-13 -20 31 -97 -98 0
-13 16 -31 99 100 0
-13 16 -31 99 -100 0
-13 16 -31 -99 100 0
-13 16 -31 -99 -100 0
-16 23 38 101 102 0
-16 23 38 101 -102 0
-16 23 38 -101 102 0
-16 23 38 -101 -102 0
-16 19 -38 103 104 0
-16 19 -38 103 -104 0
-16 19 -38 -103 104 0
-16 19 -38 -103 -104 0
-19 23 -38 105 106 0
-19 23 -38 105 -106 0
-19 23 -38 -105 106 0
-19 23 -38 -105 -106 0
14 -23 34 107 108 0
14 -23 34 107 -108 0
14 -23 34 -107 108 0
14 -23 34 -107 -108 0
1 14 -34 109 110 0
1 14 -34 109 -110 0
1 14 -34 -109 110 0
1 14 -34 -109 -110 0
-1 9 14 111 112 0
-1 9 14 111 -112 0
-1 9 14 -111 112 0
-1 9 14 -111 -112 0
-1 -9 -23 113 114 0
-1 -9 -23 113 -114 0
-1 -9 -23 -113 114 0
-1 -9 -23 -113 -114 0
-14 21 -23 115 116 0
-14 21 -23 115 -116 0
-14 21 -23 -115 116 0
-14 21 -23 -115 -116 0
-14 -16 -21 117 118 0
-14 -16 -21 117 -118 0
-14 -16 -21 -117 118 0
-14 -16 -21 -117 -118 0
25 -35 41 119 120 0
25 -35 41 119 -120 0
25 -35 41 -119 120 0
25 -35 41 -119 -120 0
-25 41 50 121 122 0
-25 41 50 121 -122 0
-25 41 50 -121 122 0
-25 41 50 -121 -122 0
-35 49 -50 123 124 0
-35 49 -50 123 -124 0
-35 49 -50 -123 124 0
-35 49 -50 -123 -124 0
-25 -49 -50 125 126 0
-25 -49 -50 125 -126 0
-25 -49 -50 -125 126 0
-25 -49 -50 -125 -126 0
-19 -48 -49 127 128 0
-19 -48 -49 127 -128 0
-19 -48 -49 -127 128 0
-19 -48 -49 -127 -128 0
3 -39 44 129 130 0
3 -39 44 129 -130 0
3 -39 44 -129 130 0
3 -39 44 -129 -130 0
1 3 -44 131 132 0
1 3 -44 131 -132 0
1 3 -44 -131 132 0
1 3 -44 -131 -132 0
9 35 44 133 134 0
9 35 44 133 -134 0
9 35 44 -133 134 0
9 35 44 -133 -134 0
-9 -31 44 135 136 0
-9 -31 44 135 -136 0
-9 -31 44 -135 136 0
-9 -31 44 -135 -136 0
22 25 -44 137 138 0
22 25 -44 137 -138 0
22 25 -44 -137 138 0
22 25 -44 -137 -138 0
-12 -43 46 139 140 0
-12 -43 46 139 -140 0
-12 -43 46 -139 140 0
-12 -43 46 -139 -140 0
-12 -28 -46 141 142 0
-12 -28 -46 141 -142 0
-12 -28 -46 -141 142 0
-12 -28 -46 -141 -142 0
6 35 48 143 144 0
6 35 48 143 -144 0
6 35 48 -143 144 0
6 35 48 -143 -144 0
11 18 -48 145 146 0
11 18 -48 145 -146 0
11 18 -48 -145 146 0
11 18 -48 -145 -146 0
22 38 -42 147 148 0
22 38 -42 147 -148 0
22 38 -42 -147 148 0
22 38 -42 -147 -148 0
22 -35 -42 149 150 0
22 -35 -42 149 -150 0
22 -35 -42 -149 150 0
22 -35 -42 -149 -150 0
-3 11 41 151 152 0
-3 11 41 151 -152 0
-3 11 41 -151 152 0
-3 11 41 -151 -152 0
27 28 -43 153 154 0
27 28 -43 153 -154 0
27 28 -43 -153 154 0
27 28 -43 -153 -154 0
-15 -21 31 155 156 0
-15 -21 31 155 -156 0
-15 -21 31 -155 156 0
-15 -21 31 -155 -156 0
-33 39 50 157 158 0
-33 39 50 157 -158 0
-33 39 50 -157 158 0
-33 39 50 -157 -158 0
-8 -22 -47 159 160 0
-8 -22 -47 159 -160 0
-8 -22 -47 -159 160 0
-8 -22 -47 -159 -160 0
-22 -40 -47 161 162 0
-22 -40 -47 161 -162 0
-22 -40 -47 -161 162 0
-22 -40 -47 -161 -162 0
39 44 -46 163 164 0
39 44 -46 163 -164 0
39 44 -46 -163 164 0
39 44 -46 -163 -164 0
-25 -26 47 165 166 0
-25 -26 47 165 -166 0
-25 -26 47 -165 166 0
-25 -26 47 -165 -166 0
38 43 45 167 168 0
38 43 45 167 -168 0
38 43 45 -167 168 0
38 43 45 -167 -168 0
-6 -14 -45 169 170 0
-6 -14 -45 169 -170 0
-6 -14 -45 -169 170 0
-6 -14 -45 -169 -170 0
-7 12 36 171 172 0
-7 12 36 171 -172 0
-7 12 36 -171 172 0
-7 12 36 -171 -172 0
8 -11 45 173 174 0
8 -11 45 173 -174 0
8 -11 45 -173 174 0
8 -11 45 -173 -174 0
27 -38 -50 175 176 0
27 -38 -50 175 -176 0
27 -38 -50 -175 176 0
27 -38 -50 -175 -176 0
7 -11 -36 177 178 0
7 -11 -36 177 -178 0
7 -11 -36 -177 178 0
7 -11 -36 -177 -178 0
-7 -41 42 179 180 0
-7 -41 42 179 -180 0
-7 -41 42 -179 180 0
-7 -41 42 -179 -180 0
7 21 23 181 182 0
7 21 23 181 -182 0
7 21 23 -181 182 0
7 21 23 -181 -182 0
-18 32 46 183 184 0
-18 32 46 183 -184 0
-18 32 46 -183 184 0
-18 32 46 -183 -184 0
8 19 -36 185 186 0
8 19 -36 185 -186 0
8 19 -36 -185 186 0
8 19 -36 -185 -186 0
-32 -45 -50 187 188 0
-32 -45 -50 187 -188 0
-32 -45 -50 -187 188 0
-32 -45 -50 -187 -188 0
7 17 21 189 190 0
7 17 21 189 -190 0
7 17 21 -189 190 0
7 17 21 -189 -190 0
6 18 43 191 192 0
6 18 43 191 -192 0
6 18 43 -191 192 0
6 18 43 -191 -192 0
-6 24 -27 193 194 0
-6 24 -27 193 -194 0
-6 24 -27 -193 194 0
-6 24 -27 -193 -194 0
40 -41 49 195 196 0
40 -41 49 195 -196 0
40 -41 49 -195 196 0
40 -41 49 -195 -196 0
-11 12 26 197 198 0
-11 12 26 197 -198 0
-11 12 26 -197 198 0
-11 12 26 -197 -198 0
-3 32 -36 199 200 0
-3 32 -36 199 -200 0
-3 32 -36 -199 200 0
-3 32 -36 -199 -200 0
-6 36 -44 201 202 0
-6 36 -44 201 -202 0
-6 36 -44 -201 202 0
-6 36 -44 -201 -202 0
-3 36 42 203 204 0
-3 36 42 203 -204 0
-3 36 42 -203 204 0
-3 36 42 -203 -204 0
-8 -11 -32 205 206 0
-8 -11 -32 205 -206 0
-8 -11 -32 -205 206 0
-8 -11 -32 -205 -206 0
-18 -27 -38 207 208 0
-18 -27 -38 207 -208 0
-18 -27 -38 -207 208 0
-18 -27 -38 -207 -208 0
-18 -27 -39 209 210 0
-18 -27 -39 209 -210 0
-18 -27 -39 -209 210 0
-18 -27 -39 -209 -210 0
